<number of tasks>
50

<cycle time>
1000

<order strength>
0.198


<task times>
1 58
2 94
3 280
4 195
5 174
6 107
7 59
8 101
9 73
10 53
11 57
12 99
13 98
14 62
15 201
16 65
17 201
18 100
19 194
20 180
21 88
22 73
23 122
24 93
25 125
26 267
27 59
28 119
29 77
30 119
31 200
32 166
33 69
34 129
35 184
36 169
37 271
38 110
39 118
40 192
41 39
42 60
43 41
44 26
45 288
46 260
47 60
48 51
49 218
50 227

<precedence relations>
1,5
1,11
1,32
2,6
2,7
3,8
3,9
3,10
4,34
4,50
5,14
6,15
7,12
7,13
7,50
9,17
9,40
10,16
11,28
12,19
13,21
14,22
15,20
16,18
16,23
16,24
16,26
16,27
17,25
17,28
17,33
17,34
18,29
19,32
20,30
21,32
22,33
23,31
24,34
24,35
27,37
29,36
30,37
31,37
32,38
32,39
32,40
36,42
37,41
37,44
38,43
41,45
42,46
43,47
44,48
44,49
44,50

<end>
